nodes = 131;
edges = 658;
starts = [1, 1, 2, 2, 3, 3, 4, 4, 4, 5, 5, 5, 6, 6, 7, 8, 8, 9, 9, 9, 10, 10, 11, 11, 11, 12, 12, 13, 14, 15, 15, 16, 16, 16, 16, 17, 17, 18, 19, 19, 19, 20, 21, 21, 21, 22, 23, 23, 23, 24, 24, 24, 25, 25, 26, 26, 26, 26, 27, 27, 28, 28, 28, 29, 29, 30, 30, 31, 32, 32, 32, 33, 33, 34, 34, 34, 35, 35, 36, 36, 36, 37, 37, 37, 38, 38, 38, 39, 39, 39, 40, 40, 40, 40, 41, 41, 41, 42, 42, 42, 43, 43, 43, 44, 45, 45, 45, 46, 46, 46, 47, 47, 48, 48, 49, 49, 49, 50, 50, 50, 51, 51, 52, 52, 52, 53, 53, 53, 54, 54, 54, 55, 55, 55, 55, 56, 56, 56, 57, 57, 57, 58, 59, 59, 59, 60, 60, 60, 61, 62, 62, 62, 62, 63, 63, 63, 64, 64, 64, 65, 65, 66, 66, 67, 67, 68, 68, 68, 69, 69, 70, 70, 70, 71, 71, 71, 72, 72, 72, 73, 73, 74, 74, 74, 75, 75, 76, 76, 77, 77, 77, 78, 78, 79, 79, 79, 80, 80, 80, 81, 81, 82, 82, 83, 83, 84, 84, 85, 85, 86, 86, 86, 87, 87, 87, 88, 88, 88, 89, 89, 89, 90, 90, 90, 91, 91, 91, 92, 92, 92, 92, 93, 93, 93, 94, 94, 94, 95, 95, 96, 96, 96, 97, 97, 97, 98, 98, 98, 99, 99, 99, 100, 100, 101, 101, 102, 102, 103, 103, 103, 104, 104, 104, 105, 105, 105, 106, 106, 106, 107, 107, 107, 108, 108, 108, 109, 109, 109, 110, 110, 110, 111, 112, 112, 112, 113, 113, 114, 114, 115, 115, 115, 116, 116, 116, 117, 117, 118, 118, 118, 119, 119, 119, 120, 121, 122, 123, 123, 123, 124, 125, 125, 125, 126, 126, 126, 127, 127, 127, 128, 128, 128, 129, 130, 130, 130, 131, 131, 131, 98, 131, 115, 131, 4, 19, 3, 26, 46, 19, 118, 119, 64, 81, 121, 79, 123, 15, 24, 57, 17, 127, 92, 126, 130, 49, 51, 58, 102, 9, 62, 17, 48, 53, 120, 10, 16, 115, 3, 5, 47, 62, 29, 50, 51, 62, 24, 57, 99, 9, 23, 104, 34, 65, 4, 36, 109, 118, 90, 97, 37, 63, 109, 31, 33, 25, 32, 29, 30, 34, 37, 13, 35, 25, 32, 39, 31, 33, 26, 37, 39, 28, 32, 36, 40, 102, 103, 34, 36, 41, 38, 72, 73, 74, 39, 65, 118, 83, 84, 89, 66, 86, 89, 56, 66, 83, 89, 4, 109, 117, 19, 48, 16, 47, 12, 50, 55, 21, 49, 94, 13, 21, 97, 111, 112, 16, 55, 119, 59, 60, 99, 49, 53, 56, 119, 44, 55, 130, 9, 23, 62, 88, 54, 88, 125, 54, 61, 104, 60, 15, 20, 22, 57, 28, 98, 131, 6, 30, 116, 12, 41, 43, 45, 68, 105, 67, 70, 96, 70, 90, 68, 69, 107, 72, 74, 107, 40, 71, 90, 40, 121, 40, 71, 77, 79, 113, 14, 86, 74, 80, 108, 95, 105, 7, 75, 122, 77, 84, 103, 82, 85, 81, 87, 42, 45, 42, 80, 8, 87, 43, 76, 103, 82, 85, 123, 58, 59, 93, 42, 43, 45, 27, 69, 72, 92, 93, 94, 11, 91, 93, 94, 88, 91, 92, 50, 91, 92, 78, 108, 68, 105, 106, 27, 52, 101, 1, 63, 116, 23, 54, 104, 101, 110, 97, 100, 38, 73, 38, 80, 86, 24, 60, 99, 67, 78, 96, 96, 107, 108, 70, 71, 106, 77, 95, 106, 26, 28, 46, 100, 112, 116, 52, 52, 110, 113, 64, 112, 115, 117, 2, 18, 114, 64, 98, 110, 46, 114, 5, 26, 41, 5, 53, 55, 16, 75, 123, 8, 87, 122, 125, 59, 124, 126, 11, 125, 127, 10, 126, 128, 127, 129, 130, 128, 11, 56, 128, 1, 2, 63];
ends = [98, 131, 115, 131, 4, 19, 3, 26, 46, 19, 118, 119, 64, 81, 121, 79, 123, 15, 24, 57, 17, 127, 92, 126, 130, 49, 51, 58, 102, 9, 62, 17, 48, 53, 120, 10, 16, 115, 3, 5, 47, 62, 29, 50, 51, 62, 24, 57, 99, 9, 23, 104, 34, 65, 4, 36, 109, 118, 90, 97, 37, 63, 109, 31, 33, 25, 32, 29, 30, 34, 37, 13, 35, 25, 32, 39, 31, 33, 26, 37, 39, 28, 32, 36, 40, 102, 103, 34, 36, 41, 38, 72, 73, 74, 39, 65, 118, 83, 84, 89, 66, 86, 89, 56, 66, 83, 89, 4, 109, 117, 19, 48, 16, 47, 12, 50, 55, 21, 49, 94, 13, 21, 97, 111, 112, 16, 55, 119, 59, 60, 99, 49, 53, 56, 119, 44, 55, 130, 9, 23, 62, 88, 54, 88, 125, 54, 61, 104, 60, 15, 20, 22, 57, 28, 98, 131, 6, 30, 116, 12, 41, 43, 45, 68, 105, 67, 70, 96, 70, 90, 68, 69, 107, 72, 74, 107, 40, 71, 90, 40, 121, 40, 71, 77, 79, 113, 14, 86, 74, 80, 108, 95, 105, 7, 75, 122, 77, 84, 103, 82, 85, 81, 87, 42, 45, 42, 80, 8, 87, 43, 76, 103, 82, 85, 123, 58, 59, 93, 42, 43, 45, 27, 69, 72, 92, 93, 94, 11, 91, 93, 94, 88, 91, 92, 50, 91, 92, 78, 108, 68, 105, 106, 27, 52, 101, 1, 63, 116, 23, 54, 104, 101, 110, 97, 100, 38, 73, 38, 80, 86, 24, 60, 99, 67, 78, 96, 96, 107, 108, 70, 71, 106, 77, 95, 106, 26, 28, 46, 100, 112, 116, 52, 52, 110, 113, 64, 112, 115, 117, 2, 18, 114, 64, 98, 110, 46, 114, 5, 26, 41, 5, 53, 55, 16, 75, 123, 8, 87, 122, 125, 59, 124, 126, 11, 125, 127, 10, 126, 128, 127, 129, 130, 128, 11, 56, 128, 1, 2, 63, 1, 1, 2, 2, 3, 3, 4, 4, 4, 5, 5, 5, 6, 6, 7, 8, 8, 9, 9, 9, 10, 10, 11, 11, 11, 12, 12, 13, 14, 15, 15, 16, 16, 16, 16, 17, 17, 18, 19, 19, 19, 20, 21, 21, 21, 22, 23, 23, 23, 24, 24, 24, 25, 25, 26, 26, 26, 26, 27, 27, 28, 28, 28, 29, 29, 30, 30, 31, 32, 32, 32, 33, 33, 34, 34, 34, 35, 35, 36, 36, 36, 37, 37, 37, 38, 38, 38, 39, 39, 39, 40, 40, 40, 40, 41, 41, 41, 42, 42, 42, 43, 43, 43, 44, 45, 45, 45, 46, 46, 46, 47, 47, 48, 48, 49, 49, 49, 50, 50, 50, 51, 51, 52, 52, 52, 53, 53, 53, 54, 54, 54, 55, 55, 55, 55, 56, 56, 56, 57, 57, 57, 58, 59, 59, 59, 60, 60, 60, 61, 62, 62, 62, 62, 63, 63, 63, 64, 64, 64, 65, 65, 66, 66, 67, 67, 68, 68, 68, 69, 69, 70, 70, 70, 71, 71, 71, 72, 72, 72, 73, 73, 74, 74, 74, 75, 75, 76, 76, 77, 77, 77, 78, 78, 79, 79, 79, 80, 80, 80, 81, 81, 82, 82, 83, 83, 84, 84, 85, 85, 86, 86, 86, 87, 87, 87, 88, 88, 88, 89, 89, 89, 90, 90, 90, 91, 91, 91, 92, 92, 92, 92, 93, 93, 93, 94, 94, 94, 95, 95, 96, 96, 96, 97, 97, 97, 98, 98, 98, 99, 99, 99, 100, 100, 101, 101, 102, 102, 103, 103, 103, 104, 104, 104, 105, 105, 105, 106, 106, 106, 107, 107, 107, 108, 108, 108, 109, 109, 109, 110, 110, 110, 111, 112, 112, 112, 113, 113, 114, 114, 115, 115, 115, 116, 116, 116, 117, 117, 118, 118, 118, 119, 119, 119, 120, 121, 122, 123, 123, 123, 124, 125, 125, 125, 126, 126, 126, 127, 127, 127, 128, 128, 128, 129, 130, 130, 130, 131, 131, 131];
weights = [92, 51, 51, 98, 81, 23, 81, 97, 24, 136, 72, 76, 10, 35, 9, 201, 52, 29, 31, 58, 47, 131, 40, 39, 78, 28, 20, 109, 137, 29, 69, 89, 31, 82, 43, 47, 89, 38, 23, 136, 91, 28, 58, 16, 13, 38, 58, 28, 29, 31, 58, 29, 58, 57, 97, 49, 151, 51, 42, 91, 49, 53, 9, 45, 53, 160, 63, 45, 63, 160, 52, 100, 44, 58, 160, 22, 53, 44, 49, 159, 31, 49, 52, 159, 168, 32, 32, 22, 31, 49, 168, 151, 36, 27, 49, 80, 81, 9, 50, 59, 30, 32, 31, 87, 28, 24, 30, 24, 176, 119, 91, 30, 31, 30, 28, 21, 127, 16, 21, 85, 214, 13, 34, 60, 90, 82, 86, 87, 43, 87, 46, 127, 86, 25, 43, 87, 25, 32, 58, 28, 37, 18, 43, 184, 26, 87, 39, 15, 39, 69, 28, 38, 37, 53, 37, 5, 10, 59, 88, 254, 80, 30, 28, 52, 27, 52, 28, 27, 63, 65, 28, 63, 65, 67, 55, 66, 151, 67, 65, 36, 150, 27, 55, 45, 9, 190, 67, 104, 45, 57, 65, 25, 45, 7, 9, 51, 57, 59, 64, 53, 71, 53, 73, 9, 24, 50, 59, 20, 52, 32, 104, 47, 73, 52, 19, 18, 184, 153, 59, 31, 30, 42, 65, 65, 55, 62, 18, 40, 55, 108, 112, 153, 62, 108, 85, 18, 112, 25, 95, 27, 50, 72, 91, 34, 27, 92, 37, 39, 29, 46, 59, 156, 65, 27, 156, 32, 169, 32, 64, 47, 29, 15, 59, 27, 45, 50, 72, 50, 51, 65, 66, 50, 65, 95, 51, 151, 9, 176, 65, 67, 78, 60, 90, 67, 92, 137, 92, 100, 11, 51, 38, 100, 88, 39, 78, 119, 11, 72, 51, 81, 76, 87, 43, 43, 7, 201, 52, 19, 201, 134, 26, 134, 39, 39, 39, 46, 131, 46, 111, 111, 37, 37, 37, 78, 32, 37, 51, 98, 5, 92, 51, 51, 98, 81, 23, 81, 97, 24, 136, 72, 76, 10, 35, 9, 201, 52, 29, 31, 58, 47, 131, 40, 39, 78, 28, 20, 109, 137, 29, 69, 89, 31, 82, 43, 47, 89, 38, 23, 136, 91, 28, 58, 16, 13, 38, 58, 28, 29, 31, 58, 29, 58, 57, 97, 49, 151, 51, 42, 91, 49, 53, 9, 45, 53, 160, 63, 45, 63, 160, 52, 100, 44, 58, 160, 22, 53, 44, 49, 159, 31, 49, 52, 159, 168, 32, 32, 22, 31, 49, 168, 151, 36, 27, 49, 80, 81, 9, 50, 59, 30, 32, 31, 87, 28, 24, 30, 24, 176, 119, 91, 30, 31, 30, 28, 21, 127, 16, 21, 85, 214, 13, 34, 60, 90, 82, 86, 87, 43, 87, 46, 127, 86, 25, 43, 87, 25, 32, 58, 28, 37, 18, 43, 184, 26, 87, 39, 15, 39, 69, 28, 38, 37, 53, 37, 5, 10, 59, 88, 254, 80, 30, 28, 52, 27, 52, 28, 27, 63, 65, 28, 63, 65, 67, 55, 66, 151, 67, 65, 36, 150, 27, 55, 45, 9, 190, 67, 104, 45, 57, 65, 25, 45, 7, 9, 51, 57, 59, 64, 53, 71, 53, 73, 9, 24, 50, 59, 20, 52, 32, 104, 47, 73, 52, 19, 18, 184, 153, 59, 31, 30, 42, 65, 65, 55, 62, 18, 40, 55, 108, 112, 153, 62, 108, 85, 18, 112, 25, 95, 27, 50, 72, 91, 34, 27, 92, 37, 39, 29, 46, 59, 156, 65, 27, 156, 32, 169, 32, 64, 47, 29, 15, 59, 27, 45, 50, 72, 50, 51, 65, 66, 50, 65, 95, 51, 151, 9, 176, 65, 67, 78, 60, 90, 67, 92, 137, 92, 100, 11, 51, 38, 100, 88, 39, 78, 119, 11, 72, 51, 81, 76, 87, 43, 43, 7, 201, 52, 19, 201, 134, 26, 134, 39, 39, 39, 46, 131, 46, 111, 111, 37, 37, 37, 78, 32, 37, 51, 98, 5];
start = 77;
end= 59;
tasks = 8;
task = array2d(1..tasks, 1..nodes, [0, 0, 1, 0, 0, 0, 0, 0, 0, 0, 0, 0, 0, 0, 0, 0, 0, 0, 0, 0, 0, 0, 0, 0, 0, 0, 0, 0, 0, 0, 0, 0, 0, 0, 0, 0, 0, 0, 0, 0, 0, 0, 0, 0, 0, 0, 0, 0, 0, 0, 0, 0, 0, 0, 0, 0, 0, 0, 0, 0, 0, 0, 0, 0, 0, 0, 0, 0, 0, 0, 0, 0, 0, 0, 0, 0, 0, 0, 0, 0, 0, 0, 0, 0, 0, 0, 0, 0, 0, 0, 0, 0, 0, 0, 0, 0, 0, 0, 0, 0, 0, 0, 0, 0, 0, 0, 0, 0, 0, 0, 0, 0, 0, 0, 0, 0, 0, 0, 0, 0, 0, 0, 0, 0, 0, 0, 0, 0, 0, 0, 0, 0, 0, 0, 0, 0, 0, 0, 0, 0, 1, 0, 0, 0, 0, 0, 0, 0, 0, 0, 0, 0, 0, 0, 0, 0, 0, 0, 0, 0, 0, 0, 0, 0, 0, 0, 0, 0, 0, 0, 0, 0, 0, 0, 0, 0, 0, 0, 0, 0, 0, 0, 0, 0, 0, 0, 0, 0, 0, 0, 0, 0, 0, 0, 0, 0, 0, 0, 0, 0, 0, 0, 0, 0, 0, 0, 0, 0, 0, 0, 0, 0, 0, 0, 0, 0, 0, 0, 0, 0, 0, 0, 0, 0, 0, 0, 0, 0, 0, 0, 0, 0, 0, 0, 0, 0, 0, 0, 0, 0, 0, 0, 0, 0, 0, 0, 0, 0, 0, 0, 0, 0, 0, 0, 0, 0, 0, 0, 0, 0, 0, 0, 0, 0, 0, 0, 0, 0, 0, 0, 0, 0, 0, 0, 0, 0, 0, 0, 0, 0, 1, 0, 0, 0, 0, 0, 0, 0, 0, 0, 0, 0, 0, 0, 0, 0, 0, 0, 0, 0, 0, 0, 0, 0, 0, 0, 0, 0, 0, 0, 0, 0, 0, 0, 0, 0, 0, 0, 0, 0, 0, 0, 0, 0, 0, 0, 0, 0, 0, 0, 0, 0, 0, 0, 0, 0, 0, 0, 0, 0, 0, 0, 0, 0, 0, 0, 0, 0, 0, 0, 0, 0, 0, 0, 0, 0, 0, 0, 0, 0, 0, 0, 0, 0, 0, 0, 0, 0, 0, 0, 0, 0, 0, 0, 0, 0, 0, 0, 0, 0, 0, 0, 0, 0, 0, 0, 0, 0, 0, 0, 0, 0, 0, 0, 0, 0, 0, 0, 0, 0, 0, 0, 0, 0, 0, 0, 0, 0, 0, 0, 0, 0, 0, 0, 0, 0, 0, 0, 0, 0, 0, 0, 0, 0, 0, 0, 0, 0, 0, 0, 0, 0, 0, 0, 0, 0, 0, 0, 1, 0, 0, 0, 0, 0, 0, 0, 0, 0, 0, 0, 0, 0, 0, 0, 0, 0, 0, 0, 0, 0, 0, 0, 0, 0, 0, 0, 0, 0, 0, 0, 0, 0, 0, 0, 0, 0, 0, 0, 0, 0, 0, 0, 0, 0, 0, 0, 0, 0, 0, 0, 0, 0, 0, 0, 0, 0, 0, 0, 0, 0, 0, 0, 0, 0, 0, 0, 0, 0, 0, 0, 0, 0, 0, 0, 0, 0, 0, 0, 0, 0, 0, 0, 0, 0, 0, 0, 0, 0, 0, 0, 0, 0, 0, 0, 0, 0, 0, 0, 0, 0, 0, 0, 0, 0, 0, 0, 0, 0, 0, 0, 0, 0, 0, 0, 0, 0, 0, 0, 0, 0, 0, 0, 0, 0, 0, 0, 0, 0, 0, 0, 0, 0, 0, 0, 0, 0, 1, 0, 0, 0, 0, 0, 0, 0, 0, 0, 0, 0, 0, 0, 0, 0, 0, 0, 0, 0, 0, 0, 0, 0, 0, 0, 0, 0, 0, 0, 0, 0, 0, 0, 0, 0, 0, 0, 0, 0, 0, 0, 0, 0, 0, 0, 0, 0, 0, 0, 0, 0, 0, 0, 0, 0, 0, 0, 0, 0, 0, 0, 0, 0, 0, 0, 0, 0, 0, 0, 0, 0, 0, 0, 0, 0, 0, 0, 0, 0, 0, 0, 0, 0, 0, 0, 0, 0, 0, 0, 0, 0, 0, 0, 0, 0, 0, 0, 0, 0, 0, 0, 0, 0, 0, 0, 0, 0, 0, 0, 0, 0, 0, 0, 0, 0, 0, 0, 0, 0, 0, 0, 0, 0, 0, 0, 0, 0, 0, 0, 0, 0, 0, 0, 0, 0, 0, 0, 0, 0, 0, 0, 0, 0, 0, 0, 0, 0, 0, 0, 0, 0, 0, 0, 0, 0, 0, 0, 0, 0, 0, 0, 0, 0, 0, 0, 0, 0, 0, 0, 0, 1, 0, 0, 0, 0, 0, 0, 0, 0, 0, 0, 0, 0, 0, 0, 0, 0, 0, 0, 0, 0, 0, 0, 0, 0, 0, 0, 0, 0, 0, 0, 0, 0, 0, 0, 0, 0, 0, 0, 0, 0, 0, 0, 0, 0, 0, 0, 0, 0, 0, 0, 0, 0, 0, 0, 0, 0, 0, 0, 0, 0, 0, 0, 0, 0, 0, 0, 0, 0, 0, 0, 0, 0, 0, 0, 0, 0, 0, 0, 0, 0, 0, 0, 0, 0, 0, 0, 0, 0, 0, 0, 0, 0, 0, 0, 0, 0, 0, 0, 0, 0, 0, 0, 0, 0, 0, 0, 0, 0, 0, 0, 0, 0, 0, 0, 0, 0, 0, 0, 0, 0, 0, 0, 0, 0, 0, 0, 0, 0, 0, 0, 0, 0, 0, 0, 0, 0, 0, 0, 0, 1, 0, 0, 0, 0, 0, 0, 0, 0, 0, 0, 0, 0, 0, 0, 0, 0, 0, 0, 0, 0, 0, 0, 0, 0, 0, 0, 0, 0, 0, 0, 0, 0, 0, 0, 0, 0, 0, 0, 0, 0, 0, 0, 0, 0, 0, 0, 0, 0, 0, 0, 0, 0, 0, 0, 0, 0, 0, 0, 0, 0, 0, 0, 0, 0, 0, 0, 0, 0, 0, 0, 0, 0, 0, 0, 0, 0, 0, 0, 0, 0, 0, 0, 0, 0, 0, 0, 0, 0, 0, 0, 0, 0, 0, 0, 0, 0, 0, 0, 0, 0, 0, 0, 0, 0, 0, 0, 0, 0, 0, 0, 0, 0, 0, 0, 0, 0, 0, 0, 0, 0, 0, 0, 0, 0, 0, 0, 0, 0, 0, 0, 0, 0, 0, 0, 0, 0, 0, 0, 0, 0, 0, 0, 0, 0, 0, 0, 0, 1, 0, 0, 0, 0, 0, 0, 0, 0, 0, 0, 0, 0]);
